Maximize
obj: 0.0001z1 + 0.0001z2 + 0.0001z3 + z4
Subject To
c1: 16 x1 + 18 x2 + 60 x3 + 79 x4 + 84 x5 + 11 x6 + 57 x7 + 27 x8 + 60 x9 + 50 x10 + 87 x11 + 40 x12 + 96 x13 + 57 x14 + 93 x15 + 61 x16 + 65 x17 + 61 x18 + 58 x19 + 33 x20 + 71 x21 + 59 x22 + 30 x23 + 61 x24 + 95 x25 + 80 x26 + 26 x27 + 64 x28 + 58 x29 + 77 x30 + 35 x31 + 67 x32 + 47 x33 + 93 x34 + 92 x35 + 22 x36 + 16 x37 + 84 x38 + 86 x39 + 70 x40 + 64 x41 + 79 x42 + 22 x43 + 19 x44 + 60 x45 + 67 x46 + 13 x47 + 40 x48 + 82 x49 + 42 x50 <= 1417
c2: 32 x1 + 12 x2 + 96 x3 + 19 x4 + 27 x5 + 62 x6 + 48 x7 + 60 x8 + 80 x9 + 65 x10 + 26 x11 + 37 x12 + 19 x13 + 33 x14 + 12 x15 + 24 x16 + 54 x17 + 89 x18 + 66 x19 + 65 x20 + 96 x21 + 24 x22 + 82 x23 + 21 x24 + 16 x25 + 29 x26 + 86 x27 + 78 x28 + 46 x29 + 80 x30 + 95 x31 + 72 x32 + 94 x33 + 100 x34 + 17 x35 + 88 x36 + 53 x37 + 21 x38 + 12 x39 + 56 x40 + 35 x41 + 78 x42 + 53 x43 + 97 x44 + 17 x45 + 19 x46 + 39 x47 + 99 x48 + 40 x49 + 82 x50 - z1 = 0
c3: 91 x1 + 100 x2 + 87 x3 + 75 x4 + 30 x5 + 39 x6 + 29 x7 + 90 x8 + 61 x9 + 90 x10 + 88 x11 + 71 x12 + 74 x13 + 58 x14 + 25 x15 + 51 x16 + 12 x17 + 13 x18 + 100 x19 + 43 x20 + 38 x21 + 99 x22 + 19 x23 + 38 x24 + 49 x25 + 77 x26 + 32 x27 + 53 x28 + 74 x29 + 95 x30 + 100 x31 + 18 x32 + 54 x33 + 37 x34 + 56 x35 + 47 x36 + 96 x37 + 93 x38 + 88 x39 + 30 x40 + 49 x41 + 18 x42 + 17 x43 + 34 x44 + 93 x45 + 33 x46 + 56 x47 + 58 x48 + 20 x49 + 46 x50 - z2 = 0
c4: 52 x1 + 58 x2 + 26 x3 + 13 x4 + 97 x5 + 10 x6 + 25 x7 + 17 x8 + 49 x9 + 28 x10 + 32 x11 + 73 x12 + 60 x13 + 70 x14 + 95 x15 + 79 x16 + 52 x17 + 29 x18 + 92 x19 + 36 x20 + 10 x21 + 76 x22 + 37 x23 + 51 x24 + 95 x25 + 18 x26 + 38 x27 + 19 x28 + 52 x29 + 91 x30 + 52 x31 + 24 x32 + 32 x33 + 55 x34 + 99 x35 + 62 x36 + 89 x37 + 27 x38 + 81 x39 + 60 x40 + 69 x41 + 53 x42 + 76 x43 + 94 x44 + 95 x45 + 92 x46 + 35 x47 + 49 x48 + 52 x49 + 55 x50 - z3 = 0
General
x1 x2 x3 x4 x5 x6 x7 x8 x9 x10 x11 x12 x13 x14 x15 x16 x17 x18 x19 x20 x21 x22 x23 x24 x25 x26 x27 x28 x29 x30 x31 x32 x33 x34 x35 x36 x37 x38 x39 x40 x41 x42 x43 x44 x45 x46 x47 x48 x49 x50
End